NAME: tsp35_13
COMMENT: 35-tsp problem (Padberg/Rinaldi)
TYPE: TSP
DIMENSION: 35
EDGE_WEIGHT_TYPE : EUC_2D
NODE_COORD_SECTION
1 36 21
2 6 40
3 24 21
4 18 39
5 31 0
6 28 5
7 3 6
8 20 39
9 18 11
10 13 24
11 22 24
12 38 36
13 39 34
14 23 16
15 22 9
16 39 28
17 26 33
18 26 20
19 30 14
20 12 1
21 30 22
22 17 26
23 14 14
24 4 6
25 9 22
26 13 4
27 32 9
28 25 6
29 34 2
30 1 8
31 15 12
32 14 1
33 25 38
34 18 37
35 33 22
